100
100
100
100
99
97
97
96
96
95
94
94
94
94
92
92
91
90
88
87
85
84
84
83
82
81
80
78
75
74
72
72
71
70
69
69
68
65
64
64
62
61
61
60
59
58
58
58
57
57
55
54
54
54
53
53
50
49
48
47
47
46
46
45
45
44
43
42
40
36
36
35
34
34
33
32
31
30
30
26
26
25
24
23
23
22
22
21
20
19
18
18
17
17
17
15
9
8
7
6
3
3
